(set-option :produce-models true)
(set-logic QF_LRA)
(set-info :notes | Strip-packing problem.|)
(declare-fun x0 () Real)
(declare-fun y0 () Real)
(declare-fun x1 () Real)
(declare-fun y1 () Real)
(declare-fun x2 () Real)
(declare-fun y2 () Real)
(declare-fun x3 () Real)
(declare-fun y3 () Real)
(declare-fun x4 () Real)
(declare-fun y4 () Real)
(declare-fun x5 () Real)
(declare-fun y5 () Real)
(declare-fun x6 () Real)
(declare-fun y6 () Real)
(declare-fun x7 () Real)
(declare-fun y7 () Real)
(declare-fun x8 () Real)
(declare-fun y8 () Real)
(declare-fun z () Real)
(declare-fun c () Real)
(assert (and (= c z) (and (>= x0 0) 
(and (>= y0 0) 
(and (>= x1 0) 
(and (>= y1 0) 
(and (>= x2 0) 
(and (>= y2 0) 
(and (>= x3 0) 
(and (>= y3 0) 
(and (>= x4 0) 
(and (>= y4 0) 
(and (>= x5 0) 
(and (>= y5 0) 
(and (>= x6 0) 
(and (>= y6 0) 
(and (>= x7 0) 
(and (>= y7 0) 
(and (>= x8 0) 
(and (>= y8 0) 
(and (>= z 0) 
(and (>= c 0) 
(and (<= (+ x0 0.3157590476) z) 
(and (<= 0.9041626915 y0) 
(and (<= y0 1.5) 
(and (<= x0 (- 2.9952512989 0.3157590476)) 
(and (>= x0 0) 
(and (<= (+ x1 0.5597181831) z) 
(and (<= 0.5878017918 y1) 
(and (<= y1 1.5) 
(and (<= x1 (- 2.9952512989 0.5597181831)) 
(and (>= x1 0) 
(and (<= (+ x2 0.6078839297) z) 
(and (<= 0.5856813544 y2) 
(and (<= y2 1.5) 
(and (<= x2 (- 2.9952512989 0.6078839297)) 
(and (>= x2 0) 
(and (<= (+ x3 0.6788049448) z) 
(and (<= 0.4517837032 y3) 
(and (<= y3 1.5) 
(and (<= x3 (- 2.9952512989 0.6788049448)) 
(and (>= x3 0) 
(and (<= (+ x4 0.8330851937) z) 
(and (<= 0.3948761423 y4) 
(and (<= y4 1.5) 
(and (<= x4 (- 2.9952512989 0.8330851937)) 
(and (>= x4 0) 
(and (<= (+ x5 0.5854673276) z) 
(and (<= 0.1711577816 y5) 
(and (<= y5 1.5) 
(and (<= x5 (- 2.9952512989 0.5854673276)) 
(and (>= x5 0) 
(and (<= (+ x6 0.4329544869) z) 
(and (<= 0.16938683 y6) 
(and (<= y6 1.5) 
(and (<= x6 (- 2.9952512989 0.4329544869)) 
(and (>= x6 0) 
(and (<= (+ x7 0.2119488806) z) 
(and (<= 0.1353040446 y7) 
(and (<= y7 1.5) 
(and (<= x7 (- 2.9952512989 0.2119488806)) 
(and (>= x7 0) 
(and (<= (+ x8 0.671963968) z) 
(and (<= 0.0853776792 y8) 
(and (<= y8 1.5) 
(and (<= x8 (- 2.9952512989 0.671963968)) 
(and (>= x8 0) 
(and (<= c 2.9952512989) 
(and (or (<= (+ x0 0.3157590476) x1) (or (<= (+ x1 0.5597181831) x0) (or (>= (- y0 0.9041626915) y1) (or (>= (- y1 0.5878017918) y0))))) 
(and (or (<= (+ x0 0.3157590476) x2) (or (<= (+ x2 0.6078839297) x0) (or (>= (- y0 0.9041626915) y2) (or (>= (- y2 0.5856813544) y0))))) 
(and (or (<= (+ x0 0.3157590476) x3) (or (<= (+ x3 0.6788049448) x0) (or (>= (- y0 0.9041626915) y3) (or (>= (- y3 0.4517837032) y0))))) 
(and (or (<= (+ x0 0.3157590476) x4) (or (<= (+ x4 0.8330851937) x0) (or (>= (- y0 0.9041626915) y4) (or (>= (- y4 0.3948761423) y0))))) 
(and (or (<= (+ x0 0.3157590476) x5) (or (<= (+ x5 0.5854673276) x0) (or (>= (- y0 0.9041626915) y5) (or (>= (- y5 0.1711577816) y0))))) 
(and (or (<= (+ x0 0.3157590476) x6) (or (<= (+ x6 0.4329544869) x0) (or (>= (- y0 0.9041626915) y6) (or (>= (- y6 0.16938683) y0))))) 
(and (or (<= (+ x0 0.3157590476) x7) (or (<= (+ x7 0.2119488806) x0) (or (>= (- y0 0.9041626915) y7) (or (>= (- y7 0.1353040446) y0))))) 
(and (or (<= (+ x0 0.3157590476) x8) (or (<= (+ x8 0.671963968) x0) (or (>= (- y0 0.9041626915) y8) (or (>= (- y8 0.0853776792) y0))))) 
(and (or (<= (+ x1 0.5597181831) x2) (or (<= (+ x2 0.6078839297) x1) (or (>= (- y1 0.5878017918) y2) (or (>= (- y2 0.5856813544) y1))))) 
(and (or (<= (+ x1 0.5597181831) x3) (or (<= (+ x3 0.6788049448) x1) (or (>= (- y1 0.5878017918) y3) (or (>= (- y3 0.4517837032) y1))))) 
(and (or (<= (+ x1 0.5597181831) x4) (or (<= (+ x4 0.8330851937) x1) (or (>= (- y1 0.5878017918) y4) (or (>= (- y4 0.3948761423) y1))))) 
(and (or (<= (+ x1 0.5597181831) x5) (or (<= (+ x5 0.5854673276) x1) (or (>= (- y1 0.5878017918) y5) (or (>= (- y5 0.1711577816) y1))))) 
(and (or (<= (+ x1 0.5597181831) x6) (or (<= (+ x6 0.4329544869) x1) (or (>= (- y1 0.5878017918) y6) (or (>= (- y6 0.16938683) y1))))) 
(and (or (<= (+ x1 0.5597181831) x7) (or (<= (+ x7 0.2119488806) x1) (or (>= (- y1 0.5878017918) y7) (or (>= (- y7 0.1353040446) y1))))) 
(and (or (<= (+ x1 0.5597181831) x8) (or (<= (+ x8 0.671963968) x1) (or (>= (- y1 0.5878017918) y8) (or (>= (- y8 0.0853776792) y1))))) 
(and (or (<= (+ x2 0.6078839297) x3) (or (<= (+ x3 0.6788049448) x2) (or (>= (- y2 0.5856813544) y3) (or (>= (- y3 0.4517837032) y2))))) 
(and (or (<= (+ x2 0.6078839297) x4) (or (<= (+ x4 0.8330851937) x2) (or (>= (- y2 0.5856813544) y4) (or (>= (- y4 0.3948761423) y2))))) 
(and (or (<= (+ x2 0.6078839297) x5) (or (<= (+ x5 0.5854673276) x2) (or (>= (- y2 0.5856813544) y5) (or (>= (- y5 0.1711577816) y2))))) 
(and (or (<= (+ x2 0.6078839297) x6) (or (<= (+ x6 0.4329544869) x2) (or (>= (- y2 0.5856813544) y6) (or (>= (- y6 0.16938683) y2))))) 
(and (or (<= (+ x2 0.6078839297) x7) (or (<= (+ x7 0.2119488806) x2) (or (>= (- y2 0.5856813544) y7) (or (>= (- y7 0.1353040446) y2))))) 
(and (or (<= (+ x2 0.6078839297) x8) (or (<= (+ x8 0.671963968) x2) (or (>= (- y2 0.5856813544) y8) (or (>= (- y8 0.0853776792) y2))))) 
(and (or (<= (+ x3 0.6788049448) x4) (or (<= (+ x4 0.8330851937) x3) (or (>= (- y3 0.4517837032) y4) (or (>= (- y4 0.3948761423) y3))))) 
(and (or (<= (+ x3 0.6788049448) x5) (or (<= (+ x5 0.5854673276) x3) (or (>= (- y3 0.4517837032) y5) (or (>= (- y5 0.1711577816) y3))))) 
(and (or (<= (+ x3 0.6788049448) x6) (or (<= (+ x6 0.4329544869) x3) (or (>= (- y3 0.4517837032) y6) (or (>= (- y6 0.16938683) y3))))) 
(and (or (<= (+ x3 0.6788049448) x7) (or (<= (+ x7 0.2119488806) x3) (or (>= (- y3 0.4517837032) y7) (or (>= (- y7 0.1353040446) y3))))) 
(and (or (<= (+ x3 0.6788049448) x8) (or (<= (+ x8 0.671963968) x3) (or (>= (- y3 0.4517837032) y8) (or (>= (- y8 0.0853776792) y3))))) 
(and (or (<= (+ x4 0.8330851937) x5) (or (<= (+ x5 0.5854673276) x4) (or (>= (- y4 0.3948761423) y5) (or (>= (- y5 0.1711577816) y4))))) 
(and (or (<= (+ x4 0.8330851937) x6) (or (<= (+ x6 0.4329544869) x4) (or (>= (- y4 0.3948761423) y6) (or (>= (- y6 0.16938683) y4))))) 
(and (or (<= (+ x4 0.8330851937) x7) (or (<= (+ x7 0.2119488806) x4) (or (>= (- y4 0.3948761423) y7) (or (>= (- y7 0.1353040446) y4))))) 
(and (or (<= (+ x4 0.8330851937) x8) (or (<= (+ x8 0.671963968) x4) (or (>= (- y4 0.3948761423) y8) (or (>= (- y8 0.0853776792) y4))))) 
(and (or (<= (+ x5 0.5854673276) x6) (or (<= (+ x6 0.4329544869) x5) (or (>= (- y5 0.1711577816) y6) (or (>= (- y6 0.16938683) y5))))) 
(and (or (<= (+ x5 0.5854673276) x7) (or (<= (+ x7 0.2119488806) x5) (or (>= (- y5 0.1711577816) y7) (or (>= (- y7 0.1353040446) y5))))) 
(and (or (<= (+ x5 0.5854673276) x8) (or (<= (+ x8 0.671963968) x5) (or (>= (- y5 0.1711577816) y8) (or (>= (- y8 0.0853776792) y5))))) 
(and (or (<= (+ x6 0.4329544869) x7) (or (<= (+ x7 0.2119488806) x6) (or (>= (- y6 0.16938683) y7) (or (>= (- y7 0.1353040446) y6))))) 
(and (or (<= (+ x6 0.4329544869) x8) (or (<= (+ x8 0.671963968) x6) (or (>= (- y6 0.16938683) y8) (or (>= (- y8 0.0853776792) y6))))) 
(and (or (<= (+ x7 0.2119488806) x8) (or (<= (+ x8 0.671963968) x7) (or (>= (- y7 0.1353040446) y8) (or (>= (- y8 0.0853776792) y7))))) ))))))))))))))))))))))))))))))))))))))))))))))))))))))))))))))))))))))))))))))))))))))))))))))))))))))))
(minimize c)
(check-sat)
(get-objectives)
(exit)
